120
150
58
69
37
93
50
37
99
96
75
50
93
32
57
37
20
26
39
23
36
58
62
91
75
30
58
95
35
75
59
61
40
36
50
54
64
75
79
32
87
75
62
45
40
36
24
26
42
57
67
79
96
99
54
72
49
36
87
40
42
61
42
62
42
44
20
35
36
57
57
75
75
44
68
54
68
48
87
75
89
26
61
79
75
75
28
89
75
30
32
80
61
62
75
87
22
89
85
93
34
96
54
57
96
36
96
31
99
54
61
23
49
99
75
75
63
71
23
69
64
75
